\ Model prob_30
\ LP format - for model browsing. Use MPS format to capture full model detail.
Minimize
  6 Chicken + 6 Rice + 6 Beans + 7 Broccoli + 9 Fruit
Subject To
 R0: 12 Chicken + 12 Rice + 19 Beans + 19 Broccoli + 4 Fruit >= 97
 R1: 2 Chicken + 24 Rice + 18 Beans + 7 Broccoli + 27 Fruit >= 163
 R2: 186 Chicken + 250 Rice + 134 Beans + 84 Broccoli + 104 Fruit >= 2217
Bounds
Generals
 Chicken Rice Beans Broccoli Fruit
End
